1293447
45, 90, 24, 109, 10, 77, 9, 66, 37, 26, 41, 72, 38, 75, 57, 86, 27, 69, 70, 14, 39, 31, 49, 91, 11, 89, 47, 97, 105, 71, 99, 76, 18, 50, 88, 7, 65, 12, 36, 8, 28, 68, 40, 55, 78, 33, 108, 106, 60, 42, 19, 73, 87, 62, 96, 93, 13, 21, 48, 80, 17, 53, 100, 102, 54, 58, 104, 22, 64, 23, 15, 79, 67, 4, 74, 92, 56, 103, 30, 6, 61, 85, 43, 95, 32, 44, 20, 63, 3, 25, 83, 16, 107, 94, 81, 2, 51, 84, 59, 46, 29, 34, 52, 101, 98, 1, 35, 5, 82
